<?xml version = "1.0" standalone="yes"?>
<!-- This file has been generated by DOcplex version 2.23.222  -->
<CPLEXSolution version="1.0">
 <header
   problemName="CVRP"
   objectiveValue="14179.1"
  />
 <variables>
  <variable name="x_0_2" index="1" value="1.00000"/>
  <variable name="x_0_3" index="2" value="1.00000"/>
  <variable name="x_0_4" index="3" value="1.00000"/>
  <variable name="x_0_5" index="4" value="1.00000"/>
  <variable name="x_0_6" index="5" value="1.00000"/>
  <variable name="x_0_7" index="6" value="1.00000"/>
  <variable name="x_0_8" index="7" value="1.00000"/>
  <variable name="x_0_13" index="12" value="1.00000"/>
  <variable name="x_0_15" index="14" value="1.00000"/>
  <variable name="x_0_17" index="16" value="1.00000"/>
  <variable name="x_0_18" index="17" value="1.00000"/>
  <variable name="x_1_0" index="18" value="1.00000"/>
  <variable name="x_2_0" index="36" value="1.00000"/>
  <variable name="x_3_11" index="64" value="1.00000"/>
  <variable name="x_4_1" index="73" value="1.00000"/>
  <variable name="x_5_10" index="99" value="1.00000"/>
  <variable name="x_6_12" index="119" value="1.00000"/>
  <variable name="x_7_16" index="141" value="1.00000"/>
  <variable name="x_8_0" index="144" value="1.00000"/>
  <variable name="x_9_0" index="162" value="1.00000"/>
  <variable name="x_10_0" index="180" value="1.00000"/>
  <variable name="x_11_0" index="198" value="1.00000"/>
  <variable name="x_12_0" index="216" value="1.00000"/>
  <variable name="x_13_14" index="247" value="1.00000"/>
  <variable name="x_14_0" index="252" value="1.00000"/>
  <variable name="x_15_0" index="270" value="1.00000"/>
  <variable name="x_16_0" index="288" value="1.00000"/>
  <variable name="x_17_0" index="306" value="1.00000"/>
  <variable name="x_18_9" index="333" value="1.00000"/>
  <variable name="u_1" index="342" value="18.00000"/>
  <variable name="u_2" index="343" value="20.00000"/>
  <variable name="u_3" index="344" value="5.00000"/>
  <variable name="u_4" index="345" value="4.00000"/>
  <variable name="u_5" index="346" value="12.00000"/>
  <variable name="u_6" index="347" value="8.00000"/>
  <variable name="u_7" index="348" value="7.00000"/>
  <variable name="u_8" index="349" value="20.00000"/>
  <variable name="u_9" index="350" value="20.00000"/>
  <variable name="u_10" index="351" value="22.00000"/>
  <variable name="u_11" index="352" value="18.00000"/>
  <variable name="u_12" index="353" value="18.00000"/>
  <variable name="u_13" index="354" value="5.00000"/>
  <variable name="u_14" index="355" value="20.00000"/>
  <variable name="u_15" index="356" value="18.00000"/>
  <variable name="u_16" index="357" value="22.00000"/>
  <variable name="u_17" index="358" value="21.00000"/>
  <variable name="u_18" index="359" value="2.00000"/>
 </variables>
</CPLEXSolution>
